Reading model...
...model read.
creating competitive generators file...
...competitive generators recorded.
Loading data...
.. real-time data read.
Compiling instance...
...instance created.
Creating Offer Mitigation (model will solve as dispatch if TRUE)...
...storage offer mitigation file created
Converting model to MPEC...
...converted
NOTE: initial MIP solve with only storage competitive to get feasible solution
Solving...

Welcome to IBM(R) ILOG(R) CPLEX(R) Interactive Optimizer 12.10.0.0
  with Simplex, Mixed Integer & Barrier Optimizers
5725-A06 5725-A29 5724-Y48 5724-Y49 5724-Y54 5724-Y55 5655-Y21
Copyright IBM Corp. 1988, 2019.  All Rights Reserved.

Type 'help' for a list of available commands.
Type 'help' followed by a command name for more
information on commands.

CPLEX> Logfile 'cplex.log' closed.
Logfile 'C:\Users\wenmi\Desktop\competitiveMPEC\logs\tmp_umyw_rf.cplex.log' open.
CPLEX> New value for parallel optimization mode: -1
CPLEX> New value for mixed integer optimality gap tolerance: 0.01
CPLEX> New value for deterministic time limit in ticks: 100000
CPLEX> Problem 'C:\Users\wenmi\Desktop\competitiveMPEC\logs\tmpgasvqnjy.pyomo.lp' read.
Read time = 0.31 sec. (27.10 ticks)
CPLEX> Problem name         : C:\Users\wenmi\Desktop\competitiveMPEC\logs\tmpgasvqnjy.pyomo.lp
Objective sense      : Maximize
Variables            :  106816  [Nneg: 1,  Box: 43669,  Free: 8832,
                                 Binary: 54314]
Objective nonzeros   :   17507
Linear constraints   :  244923  [Less: 82047,  Greater: 117460,  Equal: 45416]
  Nonzeros           :  576967
  RHS nonzeros       :  133780

Variables            : Min LB: -5000.000        Max UB: 1000000.       
Objective nonzeros   : Min   : 0.1000000        Max   : 827.6000       
Linear constraints   :
  Nonzeros           : Min   : 0.1000000        Max   : 1000000.       
  RHS nonzeros       : Min   : 0.1000000        Max   : 1000000.       
CPLEX> Version identifier: 12.10.0.0 | 2019-11-26 | 843d4de2ae
CPXPARAM_Parallel                                -1
CPXPARAM_DetTimeLimit                            100000
CPXPARAM_MIP_Tolerances_MIPGap                   0.01
Tried aggregator 3 times.
MIP Presolve eliminated 177828 rows and 40764 columns.
MIP Presolve added 6212 rows and 0 columns.
MIP Presolve modified 48795 coefficients.
Aggregator did 25623 substitutions.
Reduced MIP has 47684 rows, 38931 columns, and 142175 nonzeros.
Reduced MIP has 15390 binaries, 0 generals, 0 SOSs, and 0 indicators.
Presolve time = 0.33 sec. (332.03 ticks)
Probing fixed 855 vars, tightened 9789 bounds.
Probing time = 0.08 sec. (17.08 ticks)
Tried aggregator 2 times.
Detecting symmetries...
MIP Presolve eliminated 1918 rows and 1724 columns.
MIP Presolve modified 5813 coefficients.
Aggregator did 52 substitutions.
Reduced MIP has 45714 rows, 37155 columns, and 136438 nonzeros.
Reduced MIP has 14529 binaries, 0 generals, 0 SOSs, and 0 indicators.
Presolve time = 0.13 sec. (144.35 ticks)
Probing fixed 0 vars, tightened 650 bounds.
Probing time = 0.23 sec. (32.85 ticks)
Clique table members: 105428.
MIP emphasis: balance optimality and feasibility.
MIP search method: dynamic search.
Parallel mode: opportunistic, using up to 16 threads.
Root relaxation solution time = 0.72 sec. (1443.46 ticks)

        Nodes                                         Cuts/
   Node  Left     Objective  IInf  Best Integer    Best Bound    ItCnt     Gap

      0     0        0.0000    57                      0.0000     9363         
      0     0        0.0000    57                     Cuts: 2     9366         
      0     0        0.0000    57                     Cuts: 7     9373         
      0     0        0.0000    57                     Cuts: 5     9376         
      0     0        cutoff                                       9376         
Elapsed time = 3.72 sec. (5029.12 ticks, tree = 0.01 MB, solutions = 0)

Clique cuts applied:  2
Flow cuts applied:  1
Gomory fractional cuts applied:  4

Root node processing (before b&c):
  Real time             =    3.73 sec. (5029.80 ticks)
Parallel b&c, 16 threads:
  Real time             =    0.00 sec. (0.00 ticks)
  Sync time (average)   =    0.00 sec.
  Wait time (average)   =    0.00 sec.
                          ------------
Total (root+branch&cut) =    3.73 sec. (5029.80 ticks)


MIP - Integer infeasible or unbounded.
Current MIP best bound is infinite.
Solution time =    3.73 sec.  Iterations = 9376  Nodes = 0
Deterministic time = 5030.11 ticks  (1347.11 ticks/sec)

CPLEX> CPLEX Error  1217: No solution exists.
No file written.
CPLEX> NOTE: no warmstart specified for MIP iteration, default behavior is true
NOTE: resolving with all competitive generators using storage-only solution to warmstart
Solving...

Welcome to IBM(R) ILOG(R) CPLEX(R) Interactive Optimizer 12.10.0.0
  with Simplex, Mixed Integer & Barrier Optimizers
5725-A06 5725-A29 5724-Y48 5724-Y49 5724-Y54 5724-Y55 5655-Y21
Copyright IBM Corp. 1988, 2019.  All Rights Reserved.

Type 'help' for a list of available commands.
Type 'help' followed by a command name for more
information on commands.

CPLEX> Logfile 'cplex.log' closed.
Logfile 'C:\Users\wenmi\Desktop\competitiveMPEC\logs\tmp18t55bpk.cplex.log' open.
CPLEX> New value for parallel optimization mode: -1
CPLEX> New value for mixed integer optimality gap tolerance: 0.01
CPLEX> New value for deterministic time limit in ticks: 100000
CPLEX> Problem 'C:\Users\wenmi\Desktop\competitiveMPEC\logs\tmpxryuhzcc.pyomo.lp' read.
Read time = 0.31 sec. (27.14 ticks)
CPLEX> MIP start file 'C:\Users\wenmi\Desktop\competitiveMPEC\logs\tmpq4fwvibe.cplex.mst' read.
CPLEX> Problem name         : C:\Users\wenmi\Desktop\competitiveMPEC\logs\tmpxryuhzcc.pyomo.lp
Objective sense      : Maximize
Variables            :  108256  [Nneg: 1,  Box: 45109,  Free: 8832,
                                 Binary: 54314]
Objective nonzeros   :   18899
Linear constraints   :  244923  [Less: 82047,  Greater: 117460,  Equal: 45416]
  Nonzeros           :  576967
  RHS nonzeros       :  133780

Variables            : Min LB: -5000.000        Max UB: 1000000.       
Objective nonzeros   : Min   : 0.1000000        Max   : 785.4000       
Linear constraints   :
  Nonzeros           : Min   : 0.1000000        Max   : 1000000.       
  RHS nonzeros       : Min   : 0.1000000        Max   : 1000000.       
CPLEX> Version identifier: 12.10.0.0 | 2019-11-26 | 843d4de2ae
CPXPARAM_Parallel                                -1
CPXPARAM_DetTimeLimit                            100000
CPXPARAM_MIP_Tolerances_MIPGap                   0.01
Warning:  No solution found from 1 MIP starts.
Retaining values of one MIP start for possible repair.
Tried aggregator 3 times.
MIP Presolve eliminated 177828 rows and 42204 columns.
MIP Presolve added 6212 rows and 0 columns.
MIP Presolve modified 48795 coefficients.
Aggregator did 25623 substitutions.
Reduced MIP has 47684 rows, 38931 columns, and 142175 nonzeros.
Reduced MIP has 15390 binaries, 0 generals, 0 SOSs, and 0 indicators.
Presolve time = 0.36 sec. (332.74 ticks)
Probing fixed 855 vars, tightened 9789 bounds.
Probing time = 0.09 sec. (17.08 ticks)
Tried aggregator 2 times.
Detecting symmetries...
MIP Presolve eliminated 1918 rows and 1724 columns.
MIP Presolve modified 5813 coefficients.
Aggregator did 52 substitutions.
Reduced MIP has 45714 rows, 37155 columns, and 136438 nonzeros.
Reduced MIP has 14529 binaries, 0 generals, 0 SOSs, and 0 indicators.
Presolve time = 0.14 sec. (144.35 ticks)
Probing fixed 0 vars, tightened 650 bounds.
Probing time = 0.28 sec. (32.85 ticks)
Clique table members: 105428.
MIP emphasis: balance optimality and feasibility.
MIP search method: dynamic search.
Parallel mode: opportunistic, using up to 16 threads.
Root relaxation solution time = 0.61 sec. (572.56 ticks)

        Nodes                                         Cuts/
   Node  Left     Objective  IInf  Best Integer    Best Bound    ItCnt     Gap

      0     0   242721.1345   375                 242721.1345       32         
      0     0   225448.7893   375                   Cuts: 607      890         
      0     0   224695.0247   375                   Cuts: 753     1208         
      0     0   224660.4617   375                   Cuts: 225     1288         
      0     0   224535.9528   375                    Cuts: 14     1315         
      0     0   224460.3947   375                    Cuts: 15     1325         
      0     0   224456.0862   375                    Cuts: 10     1334         
      0     0   224455.6560   375                    Cuts: 11     1343         
      0     0   224455.6560   375                    Cuts: 12     1347         
Repair heuristic found nothing.
      0     8    infeasible                       219003.1440     2279         
Elapsed time = 7.80 sec. (7846.02 ticks, tree = 0.02 MB, solutions = 0)
     70    35    infeasible                       218423.7281     3729         
    201    63    infeasible                       218423.7281     4768         
    299   111   131710.2849   159                 218423.7281    12677         
    432   146    infeasible                       218423.7281    24139         
    563   199    infeasible                       218423.7281    39326         
    694   254    59771.3822    98                 218423.7281    46963         
    893   367    49873.4170    52                 218423.7281    49985         
   1090   426    44113.9855    86                 218423.7281    51457         
   1256   574    19865.8632    41                 218423.7281    59398         
   2100   697    infeasible                       161442.7656    72015         
Elapsed time = 22.64 sec. (10961.34 ticks, tree = 5.92 MB, solutions = 0)

Clique cuts applied:  8
Cover cuts applied:  1
Implied bound cuts applied:  16
Flow cuts applied:  633
Mixed integer rounding cuts applied:  44
Zero-half cuts applied:  1
Gomory fractional cuts applied:  8

Root node processing (before b&c):
  Real time             =    7.36 sec. (7831.67 ticks)
Parallel b&c, 16 threads:
  Real time             =   15.51 sec. (4088.88 ticks)
  Sync time (average)   =    0.36 sec.
  Wait time (average)   =    0.00 sec.
                          ------------
Total (root+branch&cut) =   22.88 sec. (11920.55 ticks)


MIP - Integer infeasible or unbounded.
Current MIP best bound is infinite.
Solution time =   22.89 sec.  Iterations = 131012  Nodes = 2833
Deterministic time = 11920.86 ticks  (520.77 ticks/sec)

CPLEX> CPLEX Error  1217: No solution exists.
No file written.
CPLEX> Exporting results... 
